3103.27 0
0 20 35 26 31 32 30 23 34 25 136 0
0 94 96 95 93 90 87 85 76 0
0 134 118 128 116 122 117 114 127 115 135 0
0 109 98 97 111 0
0 63 56 54 62 55 60 64 0
0 75 88 86 91 81 82 140 148 141 143 146 0
0 129 130 131 121 126 73 67 72 69 133 61 0
0 107 102 110 150 13 2 16 5 17 9 3 10 4 7 104 108 101 99 103 105 112 0
0 33 19 28 22 21 18 0
0 132 125 120 124 113 119 123 37 29 24 36 27 0
0 42 48 50 49 47 45 41 46 57 0
0 106 100 15 8 11 12 14 1 6 145 0
0 58 66 74 71 65 70 68 44 43 38 40 39 51 0
0 53 59 52 0
0 149 144 139 138 147 142 84 89 92 79 83 78 77 80 137 0